\ENCODING=ISO-8859-1
\Problem name: ilog.cplex

Maximize
 obj: 757 x(0)#0 + 679 x(1)#1 + 852 x(2)#2 + 1225 x(3)#3 + 770 x(4)#4
      + 282 x(5)#5 + 783 x(6)#6 + 934 x(7)#7 + 760 x(8)#8 + 1133 x(9)#9
      + 627 x(10)#10 + 598 x(11)#11 + 672 x(12)#12 + 558 x(13)#13
      + 1057 x(14)#14 + 569 x(15)#15 + 961 x(16)#16 + 1086 x(17)#17
      + 715 x(18)#18 + 715 x(19)#19 + 825 x(20)#20 + 532 x(21)#21
      + 682 x(22)#22 + 823 x(23)#23 + 687 x(24)#24 + 499 x(25)#25
      + 907 x(26)#26 + 639 x(27)#27 + 598 x(28)#28 + 991 x(29)#29
      + 615 x(30)#30 + 840 x(31)#31 + 647 x(32)#32 + 637 x(33)#33
      + 1169 x(34)#34 + 842 x(35)#35 + 666 x(36)#36 + 1048 x(37)#37
      + 596 x(38)#38 + 807 x(39)#39 + 677 x(40)#40 + 729 x(41)#41
      + 616 x(42)#42 + 921 x(43)#43 + 371 x(44)#44 + 907 x(45)#45
      + 900 x(46)#46 + 851 x(47)#47 + 598 x(48)#48 + 726 x(49)#49
      + 708 x(50)#50 + 646 x(51)#51 + 754 x(52)#52 + 1019 x(53)#53
      + 817 x(54)#54 + 481 x(55)#55 + 666 x(56)#56 + 745 x(57)#57
      + 824 x(58)#58 + 474 x(59)#59 + 569 x(60)#60 + 916 x(61)#61
      + 756 x(62)#62 + 628 x(63)#63 + 441 x(64)#64 + 894 x(65)#65
      + 1053 x(66)#66 + 770 x(67)#67 + 881 x(68)#68 + 631 x(69)#69
      + 856 x(70)#70 + 700 x(71)#71 + 678 x(72)#72 + 722 x(73)#73
      + 944 x(74)#74 + 963 x(75)#75 + 502 x(76)#76 + 538 x(77)#77
      + 627 x(78)#78 + 862 x(79)#79 + 816 x(80)#80 + 904 x(81)#81
      + 984 x(82)#82 + 565 x(83)#83 + 803 x(84)#84 + 374 x(85)#85
      + 564 x(86)#86 + 623 x(87)#87 + 878 x(88)#88 + 1038 x(89)#89
      + 384 x(90)#90 + 672 x(91)#91 + 892 x(92)#92 + 843 x(93)#93
      + 736 x(94)#94 + 667 x(95)#95 + 937 x(96)#96 + 909 x(97)#97
      + 1000 x(98)#98 + 443 x(99)#99
Subject To
 c1: 356 x(0)#0 + 787 x(1)#1 + 241 x(2)#2 + 469 x(3)#3 + 507 x(4)#4 + 6 x(5)#5
     + 152 x(6)#6 + 603 x(7)#7 + 384 x(8)#8 + 715 x(9)#9 + 832 x(10)#10
     + 370 x(11)#11 + 725 x(12)#12 + 95 x(13)#13 + 75 x(14)#14 + 433 x(15)#15
     + 914 x(16)#16 + 945 x(17)#17 + 71 x(18)#18 + 91 x(19)#19 + 810 x(20)#20
     + 95 x(21)#21 + 162 x(22)#22 + 52 x(23)#23 + 140 x(24)#24 + 386 x(25)#25
     + 645 x(26)#26 + 75 x(27)#27 + 11 x(28)#28 + 992 x(29)#29 + 440 x(30)#30
     + 508 x(31)#31 + 252 x(32)#32 + 589 x(33)#33 + 769 x(34)#34 + 906 x(35)#35
     + 603 x(36)#36 + 569 x(37)#37 + 636 x(38)#38 + 15 x(39)#39 + 516 x(40)#40
     + 696 x(41)#41 + 122 x(42)#42 + 196 x(43)#43 + 618 x(44)#44 + 956 x(45)#45
     + 977 x(46)#46 + 831 x(47)#47 + 418 x(48)#48 + 683 x(49)#49 + 510 x(50)#50
     + 151 x(51)#51 + 245 x(52)#52 + 96 x(53)#53 + 197 x(54)#54 + 657 x(55)#55
     + 88 x(56)#56 + 346 x(57)#57 + 453 x(58)#58 + 416 x(59)#59 + 595 x(60)#60
     + 566 x(61)#61 + 308 x(62)#62 + 398 x(63)#63 + 715 x(64)#64 + 429 x(65)#65
     + 741 x(66)#66 + 141 x(67)#67 + 447 x(68)#68 + 389 x(69)#69 + 948 x(70)#70
     + 139 x(71)#71 + 173 x(72)#72 + 113 x(73)#73 + 901 x(74)#74 + 97 x(75)#75
     + 59 x(76)#76 + 896 x(77)#77 + 496 x(78)#78 + 339 x(79)#79 + 229 x(80)#80
     + 254 x(81)#81 + 173 x(82)#82 + 397 x(83)#83 + 945 x(84)#84 + 573 x(85)#85
     + 999 x(86)#86 + 754 x(87)#87 + 828 x(88)#88 + 145 x(89)#89 + 403 x(90)#90
     + 804 x(91)#91 + 802 x(92)#92 + 38 x(93)#93 + 324 x(94)#94 + 906 x(95)#95
     + 344 x(96)#96 + 98 x(97)#97 + 365 x(98)#98 + 100 x(99)#99 <= 33727
 c2: 98 x(0)#0 + 162 x(1)#1 + 286 x(2)#2 + 976 x(3)#3 + 819 x(4)#4 + 245 x(5)#5
     + 467 x(6)#6 + 978 x(7)#7 + 31 x(8)#8 + 619 x(9)#9 + 56 x(10)#10
     + 453 x(11)#11 + 106 x(12)#12 + 467 x(13)#13 + 948 x(14)#14 + 676 x(15)#15
     + 399 x(16)#16 + 351 x(17)#17 + 24 x(18)#18 + 607 x(19)#19 + 528 x(20)#20
     + 928 x(21)#21 + 86 x(22)#22 + 143 x(23)#23 + 201 x(24)#24 + 89 x(25)#25
     + 482 x(26)#26 + 336 x(27)#27 + 595 x(28)#28 + 653 x(29)#29 + 441 x(30)#30
     + 785 x(31)#31 + 777 x(32)#32 + 767 x(33)#33 + 828 x(34)#34 + 748 x(35)#35
     + 628 x(36)#36 + 637 x(37)#37 + 171 x(38)#38 + 510 x(39)#39 + 455 x(40)#40
     + 244 x(41)#41 + 521 x(42)#42 + 589 x(43)#43 + 130 x(44)#44 + 626 x(45)#45
     + 315 x(46)#46 + 909 x(47)#47 + 567 x(48)#48 + 62 x(49)#49 + 936 x(50)#50
     + 401 x(51)#51 + 445 x(52)#52 + 103 x(53)#53 + 920 x(54)#54 + 409 x(55)#55
     + 296 x(56)#56 + 511 x(57)#57 + 820 x(58)#58 + 984 x(59)#59 + 405 x(60)#60
     + 182 x(61)#61 + 897 x(62)#62 + 803 x(63)#63 + 110 x(64)#64 + 661 x(65)#65
     + 724 x(66)#66 + 369 x(67)#67 + 867 x(68)#68 + 329 x(69)#69 + 724 x(70)#70
     + 205 x(71)#71 + 418 x(72)#72 + 236 x(73)#73 + 266 x(74)#74 + 852 x(75)#75
     + 396 x(76)#76 + 66 x(77)#77 + 346 x(78)#78 + 854 x(79)#79 + 503 x(80)#80
     + 521 x(81)#81 + 607 x(82)#82 + 7 x(83)#83 + 83 x(84)#84 + 342 x(85)#85
     + 143 x(86)#86 + 651 x(87)#87 + 990 x(88)#88 + 975 x(89)#89 + 51 x(90)#90
     + 67 x(91)#91 + 29 x(92)#92 + 732 x(93)#93 + 485 x(94)#94 + 298 x(95)#95
     + 889 x(96)#96 + 948 x(97)#97 + 871 x(98)#98 + 206 x(99)#99 <= 36339
 c3: 581 x(0)#0 + 89 x(1)#1 + 968 x(2)#2 + 879 x(3)#3 + 409 x(4)#4 + 474 x(5)#5
     + 877 x(6)#6 + 569 x(7)#7 + 320 x(8)#8 + 853 x(9)#9 + 241 x(10)#10
     + 577 x(11)#11 + 970 x(12)#12 + 889 x(13)#13 + 652 x(14)#14 + 753 x(15)#15
     + 497 x(16)#16 + 812 x(17)#17 + 661 x(18)#18 + 219 x(19)#19 + 355 x(20)#20
     + 34 x(21)#21 + 863 x(22)#22 + 720 x(23)#23 + 508 x(24)#24 + 152 x(25)#25
     + 317 x(26)#26 + 254 x(27)#27 + 73 x(28)#28 + 915 x(29)#29 + 837 x(30)#30
     + 315 x(31)#31 + 604 x(32)#32 + 484 x(33)#33 + 797 x(34)#34 + 956 x(35)#35
     + 315 x(36)#36 + 952 x(37)#37 + 681 x(38)#38 + 988 x(39)#39 + 799 x(40)#40
     + 80 x(41)#41 + 559 x(42)#42 + 677 x(43)#43 + 125 x(44)#44 + 510 x(45)#45
     + 665 x(46)#46 + 191 x(47)#47 + 63 x(48)#48 + 946 x(49)#49 + 432 x(50)#50
     + 75 x(51)#51 + 632 x(52)#52 + 887 x(53)#53 + 456 x(54)#54 + 71 x(55)#55
     + 433 x(56)#56 + 18 x(57)#57 + 864 x(58)#58 + 191 x(59)#59 + 22 x(60)#60
     + 659 x(61)#61 + 702 x(62)#62 + 440 x(63)#63 + 784 x(64)#64 + 579 x(65)#65
     + 5 x(66)#66 + 628 x(67)#67 + 728 x(68)#68 + 308 x(69)#69 + 213 x(70)#70
     + 581 x(71)#71 + 353 x(72)#72 + 342 x(73)#73 + 150 x(74)#74 + 666 x(75)#75
     + 66 x(76)#76 + 303 x(77)#77 + 212 x(78)#78 + 25 x(79)#79 + 638 x(80)#80
     + 440 x(81)#81 + 778 x(82)#82 + 178 x(83)#83 + 460 x(84)#84 + 80 x(85)#85
     + 470 x(86)#86 + 400 x(87)#87 + 645 x(88)#88 + 937 x(89)#89 + 192 x(90)#90
     + 6 x(91)#91 + 801 x(92)#92 + 692 x(93)#93 + 58 x(94)#94 + 14 x(95)#95
     + 56 x(96)#96 + 933 x(97)#97 + 438 x(98)#98 + 928 x(99)#99 <= 36746
 c4: 873 x(0)#0 + 526 x(1)#1 + 987 x(2)#2 + 972 x(3)#3 + 444 x(4)#4
     + 493 x(5)#5 + 293 x(6)#6 + 520 x(7)#7 + 521 x(8)#8 + 605 x(9)#9
     + 607 x(10)#10 + 184 x(11)#11 + 933 x(12)#12 + 485 x(13)#13 + 609 x(14)#14
     + 401 x(15)#15 + 416 x(16)#16 + 107 x(17)#17 + 289 x(18)#18 + 747 x(19)#19
     + 71 x(20)#20 + 246 x(21)#21 + 723 x(22)#22 + 362 x(23)#23 + 337 x(24)#24
     + 174 x(25)#25 + 401 x(26)#26 + 691 x(27)#27 + 836 x(28)#28 + 371 x(29)#29
     + 609 x(30)#30 + 263 x(31)#31 + 142 x(32)#32 + 544 x(33)#33 + 489 x(34)#34
     + 777 x(35)#35 + 163 x(36)#36 + 886 x(37)#37 + 323 x(38)#38 + 359 x(39)#39
     + 385 x(40)#40 + 632 x(41)#41 + 600 x(42)#42 + 515 x(43)#43 + 372 x(44)#44
     + 770 x(45)#45 + 966 x(46)#46 + 614 x(47)#47 + 243 x(48)#48 + 41 x(49)#49
     + 41 x(50)#50 + x(51)#51 + 887 x(52)#52 + 849 x(53)#53 + 707 x(54)#54
     + 763 x(55)#55 + 495 x(56)#56 + 376 x(57)#57 + 275 x(58)#58 + 49 x(59)#59
     + 629 x(60)#60 + 749 x(61)#61 + 550 x(62)#62 + 505 x(63)#63 + 94 x(64)#64
     + 104 x(65)#65 + 721 x(66)#66 + 765 x(67)#67 + 75 x(68)#68 + 369 x(69)#69
     + 170 x(70)#70 + 840 x(71)#71 + 258 x(72)#72 + 480 x(73)#73 + 689 x(74)#74
     + 90 x(75)#75 + 4 x(76)#76 + 783 x(77)#77 + 481 x(78)#78 + 763 x(79)#79
     + 317 x(80)#80 + 833 x(81)#81 + 526 x(82)#82 + 345 x(83)#83 + 590 x(84)#84
     + 73 x(85)#85 + 286 x(86)#86 + 553 x(87)#87 + 306 x(88)#88 + 219 x(89)#89
     + 128 x(90)#90 + 119 x(91)#91 + 722 x(92)#92 + 115 x(93)#93 + 726 x(94)#94
     + 438 x(95)#95 + 457 x(96)#96 + 903 x(97)#97 + 353 x(98)#98 + 463 x(99)#99
     <= 35213
 c5: 70 x(0)#0 + 357 x(1)#1 + 888 x(2)#2 + 458 x(3)#3 + 373 x(4)#4 + 124 x(5)#5
     + 344 x(6)#6 + 901 x(7)#7 + 357 x(8)#8 + 972 x(9)#9 + 610 x(10)#10
     + 167 x(11)#11 + 183 x(12)#12 + 620 x(13)#13 + 592 x(14)#14 + 579 x(15)#15
     + 459 x(16)#16 + 815 x(17)#17 + 430 x(18)#18 + 613 x(19)#19 + 971 x(20)#20
     + 734 x(21)#21 + 456 x(22)#22 + 389 x(23)#23 + 652 x(24)#24 + 620 x(25)#25
     + 655 x(26)#26 + 383 x(27)#27 + 127 x(28)#28 + 212 x(29)#29 + 570 x(30)#30
     + 247 x(31)#31 + 52 x(32)#32 + 691 x(33)#33 + 894 x(34)#34 + 13 x(35)#35
     + 593 x(36)#36 + 653 x(37)#37 + 782 x(38)#38 + 396 x(39)#39 + 510 x(40)#40
     + 584 x(41)#41 + 705 x(42)#42 + 914 x(43)#43 + 89 x(44)#44 + 114 x(45)#45
     + 991 x(46)#46 + 263 x(47)#47 + 791 x(48)#48 + 467 x(49)#49 + 465 x(50)#50
     + 429 x(51)#51 + 89 x(52)#52 + 834 x(53)#53 + 658 x(54)#54 + 268 x(55)#55
     + 42 x(56)#56 + 73 x(57)#57 + 450 x(58)#58 + 730 x(59)#59 + 170 x(60)#60
     + 488 x(61)#61 + 532 x(62)#62 + 21 x(63)#63 + 244 x(64)#64 + 547 x(65)#65
     + 660 x(66)#66 + 377 x(67)#67 + 23 x(68)#68 + 338 x(69)#69 + 427 x(70)#70
     + 712 x(71)#71 + 95 x(72)#72 + 364 x(73)#73 + 942 x(74)#74 + 932 x(75)#75
     + 913 x(76)#76 + 210 x(77)#77 + 522 x(78)#78 + 341 x(79)#79 + 201 x(80)#80
     + 148 x(81)#81 + 544 x(82)#82 + 27 x(83)#83 + 428 x(84)#84 + 615 x(85)#85
     + 184 x(86)#86 + 618 x(87)#87 + 764 x(88)#88 + 618 x(89)#89 + 119 x(90)#90
     + 409 x(91)#91 + 511 x(92)#92 + 995 x(93)#93 + 607 x(94)#94 + 377 x(95)#95
     + 886 x(96)#96 + 292 x(97)#97 + 555 x(98)#98 + 262 x(99)#99 <= 35615
Bounds
 0 <= x(0)#0 <= 1
 0 <= x(1)#1 <= 1
 0 <= x(2)#2 <= 1
 0 <= x(3)#3 <= 1
 0 <= x(4)#4 <= 1
 0 <= x(5)#5 <= 1
 0 <= x(6)#6 <= 1
 0 <= x(7)#7 <= 1
 0 <= x(8)#8 <= 1
 0 <= x(9)#9 <= 1
 0 <= x(10)#10 <= 1
 0 <= x(11)#11 <= 1
 0 <= x(12)#12 <= 1
 0 <= x(13)#13 <= 1
 0 <= x(14)#14 <= 1
 0 <= x(15)#15 <= 1
 0 <= x(16)#16 <= 1
 0 <= x(17)#17 <= 1
 0 <= x(18)#18 <= 1
 0 <= x(19)#19 <= 1
 0 <= x(20)#20 <= 1
 0 <= x(21)#21 <= 1
 0 <= x(22)#22 <= 1
 0 <= x(23)#23 <= 1
 0 <= x(24)#24 <= 1
 0 <= x(25)#25 <= 1
 0 <= x(26)#26 <= 1
 0 <= x(27)#27 <= 1
 0 <= x(28)#28 <= 1
 0 <= x(29)#29 <= 1
 0 <= x(30)#30 <= 1
 0 <= x(31)#31 <= 1
 0 <= x(32)#32 <= 1
 0 <= x(33)#33 <= 1
 0 <= x(34)#34 <= 1
 0 <= x(35)#35 <= 1
 0 <= x(36)#36 <= 1
 0 <= x(37)#37 <= 1
 0 <= x(38)#38 <= 1
 0 <= x(39)#39 <= 1
 0 <= x(40)#40 <= 1
 0 <= x(41)#41 <= 1
 0 <= x(42)#42 <= 1
 0 <= x(43)#43 <= 1
 0 <= x(44)#44 <= 1
 0 <= x(45)#45 <= 1
 0 <= x(46)#46 <= 1
 0 <= x(47)#47 <= 1
 0 <= x(48)#48 <= 1
 0 <= x(49)#49 <= 1
 0 <= x(50)#50 <= 1
 0 <= x(51)#51 <= 1
 0 <= x(52)#52 <= 1
 0 <= x(53)#53 <= 1
 0 <= x(54)#54 <= 1
 0 <= x(55)#55 <= 1
 0 <= x(56)#56 <= 1
 0 <= x(57)#57 <= 1
 0 <= x(58)#58 <= 1
 0 <= x(59)#59 <= 1
 0 <= x(60)#60 <= 1
 0 <= x(61)#61 <= 1
 0 <= x(62)#62 <= 1
 0 <= x(63)#63 <= 1
 0 <= x(64)#64 <= 1
 0 <= x(65)#65 <= 1
 0 <= x(66)#66 <= 1
 0 <= x(67)#67 <= 1
 0 <= x(68)#68 <= 1
 0 <= x(69)#69 <= 1
 0 <= x(70)#70 <= 1
 0 <= x(71)#71 <= 1
 0 <= x(72)#72 <= 1
 0 <= x(73)#73 <= 1
 0 <= x(74)#74 <= 1
 0 <= x(75)#75 <= 1
 0 <= x(76)#76 <= 1
 0 <= x(77)#77 <= 1
 0 <= x(78)#78 <= 1
 0 <= x(79)#79 <= 1
 0 <= x(80)#80 <= 1
 0 <= x(81)#81 <= 1
 0 <= x(82)#82 <= 1
 0 <= x(83)#83 <= 1
 0 <= x(84)#84 <= 1
 0 <= x(85)#85 <= 1
 0 <= x(86)#86 <= 1
 0 <= x(87)#87 <= 1
 0 <= x(88)#88 <= 1
 0 <= x(89)#89 <= 1
 0 <= x(90)#90 <= 1
 0 <= x(91)#91 <= 1
 0 <= x(92)#92 <= 1
 0 <= x(93)#93 <= 1
 0 <= x(94)#94 <= 1
 0 <= x(95)#95 <= 1
 0 <= x(96)#96 <= 1
 0 <= x(97)#97 <= 1
 0 <= x(98)#98 <= 1
 0 <= x(99)#99 <= 1
Generals
 x(0)#0  x(1)#1  x(2)#2  x(3)#3  x(4)#4  x(5)#5  x(6)#6  x(7)#7  x(8)#8 
 x(9)#9  x(10)#10  x(11)#11  x(12)#12  x(13)#13  x(14)#14  x(15)#15  x(16)#16 
 x(17)#17  x(18)#18  x(19)#19  x(20)#20  x(21)#21  x(22)#22  x(23)#23 
 x(24)#24  x(25)#25  x(26)#26  x(27)#27  x(28)#28  x(29)#29  x(30)#30 
 x(31)#31  x(32)#32  x(33)#33  x(34)#34  x(35)#35  x(36)#36  x(37)#37 
 x(38)#38  x(39)#39  x(40)#40  x(41)#41  x(42)#42  x(43)#43  x(44)#44 
 x(45)#45  x(46)#46  x(47)#47  x(48)#48  x(49)#49  x(50)#50  x(51)#51 
 x(52)#52  x(53)#53  x(54)#54  x(55)#55  x(56)#56  x(57)#57  x(58)#58 
 x(59)#59  x(60)#60  x(61)#61  x(62)#62  x(63)#63  x(64)#64  x(65)#65 
 x(66)#66  x(67)#67  x(68)#68  x(69)#69  x(70)#70  x(71)#71  x(72)#72 
 x(73)#73  x(74)#74  x(75)#75  x(76)#76  x(77)#77  x(78)#78  x(79)#79 
 x(80)#80  x(81)#81  x(82)#82  x(83)#83  x(84)#84  x(85)#85  x(86)#86 
 x(87)#87  x(88)#88  x(89)#89  x(90)#90  x(91)#91  x(92)#92  x(93)#93 
 x(94)#94  x(95)#95  x(96)#96  x(97)#97  x(98)#98  x(99)#99 
End
